cvc5/26923.corecstrs.readable_medium.txt
(define-fun PCTEMP_LHS_1 () String "")
(define-fun PCTEMP_LHS_2 () String "")
(define-fun T1_3 () String "/signin")
(define-fun T2_3 () String "")
(define-fun T_1 () String "/signin")
(define-fun var_0xINPUT_27346 () String "")
(define-fun part_0_1786 () String "a")
(define-fun rest_0_1782 () String "bdwenbq")